
Gurobi 11.0.1 (win64) logging started Mon May 13 14:55:21 2024

Set parameter LogFile to value "output/solver_log6.txt"
Gurobi Optimizer version 11.0.1 build v11.0.1rc0 (win64 - Windows 11.0 (22631.2))

CPU model: 11th Gen Intel(R) Core(TM) i7-1165G7 @ 2.80GHz, instruction set [SSE2|AVX|AVX2|AVX512]
Thread count: 4 physical cores, 8 logical processors, using up to 8 threads

Optimize a model with 1278 rows, 421 columns and 23416 nonzeros
Model fingerprint: 0xbfadc6f3
Variable types: 88 continuous, 333 integer (333 binary)
Coefficient statistics:
  Matrix range     [4e-01, 1e+05]
  Objective range  [1e+00, 1e+02]
  Bounds range     [1e+00, 1e+00]
  RHS range        [1e-02, 1e+05]

User MIP start produced solution with objective 55699.2 (0.00s)
User MIP start produced solution with objective 55699.2 (0.00s)
Loaded user MIP start with objective 55699.2

Presolve removed 183 rows and 187 columns
Presolve time: 0.02s
Presolved: 1095 rows, 234 columns, 21884 nonzeros
Variable types: 83 continuous, 151 integer (150 binary)

Root relaxation: objective 5.622292e+04, 362 iterations, 0.01 seconds (0.03 work units)

    Nodes    |    Current Node    |     Objective Bounds      |     Work
 Expl Unexpl |  Obj  Depth IntInf | Incumbent    BestBd   Gap | It/Node Time

     0     0 56222.9171    0    9 55699.1908 56222.9171  0.94%     -    0s
     0     0 56222.9171    0    9 55699.1908 56222.9171  0.94%     -    0s
     0     0 56222.9171    0    1 55699.1908 56222.9171  0.94%     -    0s
H    0     0                    56162.917117 56222.9171  0.11%     -    0s
H    0     0                    56222.917117 56222.9171  0.00%     -    0s
     0     0 56222.9171    0    1 56222.9171 56222.9171  0.00%     -    0s

Explored 1 nodes (1716 simplex iterations) in 0.30 seconds (0.47 work units)
Thread count was 8 (of 8 available processors)

Solution count 4: 56222.9 56222.9 56162.9 55699.2 

Optimal solution found (tolerance 1.00e-04)
Best objective 5.622291711739e+04, best bound 5.622291711739e+04, gap 0.0000%
